Nodes = {"N1", "N2", "N3", "N4", "N5", "N6", "N7", "N8", "N9", "N10", "N11", "N12", "N13", "N14", "N15", "N16", "N17", "N18", "N19", "N20", "N21", "N22", "N23", "N24"};
Arcs = {<"N1","N2",60,375>, <"N1","N3",60,183>, <"N1","N4",60,79>, <"N1","N5",60,233>, <"N1","N6",60,258>, <"N1","N7",60,475>, <"N1","N8",60,104>, <"N1","N9",60,0>, <"N1","N10",60,393>, <"N1","N11",60,315>, <"N1","N12",60,256>, <"N1","N13",60,296>, <"N1","N14",60,150>, <"N1","N15",60,258>, <"N1","N16",60,370>, <"N1","N17",60,0>, <"N1","N18",60,324>, <"N1","N19",60,405>, <"N1","N20",60,0>, <"N1","N21",60,347>, <"N1","N22",60,166>, <"N1","N23",60,172>, <"N1","N24",60,188>, <"N2","N1",60,375>, <"N2","N3",60,193>, <"N2","N4",60,320>, <"N2","N5",60,0>, <"N2","N6",60,146>, <"N2","N7",60,203>, <"N2","N8",60,279>, <"N2","N9",60,350>, <"N2","N10",60,333>, <"N2","N11",60,200>, <"N2","N12",60,0>, <"N2","N13",60,0>, <"N2","N14",60,266>, <"N2","N15",60,0>, <"N2","N16",60,161>, <"N2","N17",60,385>, <"N2","N18",60,233>, <"N2","N19",60,0>, <"N2","N20",60,287>, <"N2","N21",60,264>, <"N2","N22",60,233>, <"N2","N23",60,334>, <"N2","N24",60,264>, <"N3","N1",60,183>, <"N3","N2",60,193>, <"N3","N4",60,139>, <"N3","N5",60,0>, <"N3","N6",60,88>, <"N3","N7",60,310>, <"N3","N8",60,96>, <"N3","N9",60,158>, <"N3","N10",60,301>, <"N3","N11",60,177>, <"N3","N12",60,108>, <"N3","N13",60,116>, <"N3","N14",60,0>, <"N3","N15",60,0>, <"N3","N16",60,210>, <"N3","N17",60,203>, <"N3","N18",60,201>, <"N3","N19",60,222>, <"N3","N20",60,0>, <"N3","N21",60,235>, <"N3","N22",60,84>, <"N3","N23",60,175>, <"N3","N24",60,119>, <"N4","N1",60,79>, <"N4","N2",60,320>, <"N4","N3",60,139>, <"N4","N5",60,193>, <"N4","N6",60,225>, <"N4","N7",60,448>, <"N4","N8",60,0>, <"N4","N9",60,101>, <"N4","N10",60,405>, <"N4","N11",60,303>, <"N4","N12",60,0>, <"N4","N13",60,238>, <"N4","N14",60,152>, <"N4","N15",60,251>, <"N4","N16",60,346>, <"N4","N17",60,176>, <"N4","N18",60,319>, <"N4","N19",60,357>, <"N4","N20",60,0>, <"N4","N21",60,348>, <"N4","N22",60,93>, <"N4","N23",60,207>, <"N4","N24",60,194>, <"N5","N1",60,233>, <"N5","N2",60,0>, <"N5","N3",60,0>, <"N5","N4",60,193>, <"N5","N6",60,0>, <"N5","N7",60,256>, <"N5","N8",60,150>, <"N5","N9",60,201>, <"N5","N10",60,268>, <"N5","N11",60,134>, <"N5","N12",60,0>, <"N5","N13",60,0>, <"N5","N14",60,115>, <"N5","N15",60,0>, <"N5","N16",60,158>, <"N5","N17",60,234>, <"N5","N18",60,162>, <"N5","N19",60,173>, <"N5","N20",60,139>, <"N5","N21",60,197>, <"N5","N22",60,131>, <"N5","N23",60,188>, <"N5","N24",60,121>, <"N6","N1",60,258>, <"N6","N2",60,146>, <"N6","N3",60,88>, <"N6","N4",60,225>, <"N6","N5",60,0>, <"N6","N7",60,223>, <"N6","N8",60,182>, <"N6","N9",60,221>, <"N6","N10",60,236>, <"N6","N11",60,99>, <"N6","N12",60,147>, <"N6","N13",60,100>, <"N6","N14",60,125>, <"N6","N15",60,0>, <"N6","N16",60,123>, <"N6","N17",60,244>, <"N6","N18",60,129>, <"N6","N19",60,156>, <"N6","N20",60,161>, <"N6","N21",60,165>, <"N6","N22",60,167>, <"N6","N23",60,188>, <"N6","N24",60,119>, <"N7","N1",60,475>, <"N7","N2",60,203>, <"N7","N3",60,310>, <"N7","N4",60,448>, <"N7","N5",60,256>, <"N7","N6",60,223>, <"N7","N8",60,405>, <"N7","N9",60,433>, <"N7","N10",60,0>, <"N7","N11",60,169>, <"N7","N12",60,329>, <"N7","N13",60,252>, <"N7","N14",60,329>, <"N7","N15",60,227>, <"N7","N16",60,0>, <"N7","N17",60,433>, <"N7","N18",60,179>, <"N7","N19",60,0>, <"N7","N20",60,377>, <"N7","N21",60,183>, <"N7","N22",60,384>, <"N7","N23",60,357>, <"N7","N24",60,300>, <"N8","N1",60,104>, <"N8","N2",60,279>, <"N8","N3",60,96>, <"N8","N4",60,0>, <"N8","N5",60,150>, <"N8","N6",60,182>, <"N8","N7",60,405>, <"N8","N9",60,104>, <"N8","N10",60,370>, <"N8","N11",60,262>, <"N8","N12",60,153>, <"N8","N13",60,198>, <"N8","N14",60,121>, <"N8","N15",60,213>, <"N8","N16",60,304>, <"N8","N17",60,174>, <"N8","N18",60,280>, <"N8","N19",60,314>, <"N8","N20",60,0>, <"N8","N21",60,311>, <"N8","N22",60,0>, <"N8","N23",60,187>, <"N8","N24",60,163>, <"N9","N1",60,0>, <"N9","N2",60,350>, <"N9","N3",60,158>, <"N9","N4",60,101>, <"N9","N5",60,201>, <"N9","N6",60,221>, <"N9","N7",60,433>, <"N9","N8",60,104>, <"N9","N10",60,342>, <"N9","N11",60,269>, <"N9","N12",60,248>, <"N9","N13",60,274>, <"N9","N14",60,104>, <"N9","N15",60,211>, <"N9","N16",60,328>, <"N9","N17",60,75>, <"N9","N18",60,275>, <"N9","N19",60,374>, <"N9","N20",60,0>, <"N9","N21",60,297>, <"N9","N22",60,166>, <"N9","N23",60,0>, <"N9","N24",60,139>, <"N10","N1",60,393>, <"N10","N2",60,333>, <"N10","N3",60,301>, <"N10","N4",60,405>, <"N10","N5",60,268>, <"N10","N6",60,236>, <"N10","N7",60,0>, <"N10","N8",60,370>, <"N10","N9",60,342>, <"N10","N11",60,140>, <"N10","N12",60,383>, <"N10","N13",60,327>, <"N10","N14",60,253>, <"N10","N15",60,0>, <"N10","N16",60,0>, <"N10","N17",60,305>, <"N10","N18",60,108>, <"N10","N19",60,302>, <"N10","N20",60,310>, <"N10","N21",60,0>, <"N10","N22",60,385>, <"N10","N23",60,227>, <"N10","N24",60,211>, <"N11","N1",60,315>, <"N11","N2",60,200>, <"N11","N3",60,177>, <"N11","N4",60,303>, <"N11","N5",60,134>, <"N11","N6",60,99>, <"N11","N7",60,169>, <"N11","N8",60,262>, <"N11","N9",60,269>, <"N11","N10",60,140>, <"N11","N12",60,245>, <"N11","N13",60,187>, <"N11","N14",60,166>, <"N11","N15",60,0>, <"N11","N16",60,0>, <"N11","N17",60,264>, <"N11","N18",60,0>, <"N11","N19",60,180>, <"N11","N20",60,219>, <"N11","N21",60,68>, <"N11","N22",60,261>, <"N11","N23",60,189>, <"N11","N24",60,133>, <"N12","N1",60,256>, <"N12","N2",60,0>, <"N12","N3",60,108>, <"N12","N4",60,0>, <"N12","N5",60,0>, <"N12","N6",60,147>, <"N12","N7",60,329>, <"N12","N8",60,153>, <"N12","N9",60,248>, <"N12","N10",60,383>, <"N12","N11",60,245>, <"N12","N13",60,0>, <"N12","N14",60,202>, <"N12","N15",60,226>, <"N12","N16",60,249>, <"N12","N17",60,305>, <"N12","N18",60,276>, <"N12","N19",60,200>, <"N12","N20",60,0>, <"N12","N21",60,312>, <"N12","N22",60,0>, <"N12","N23",60,283>, <"N12","N24",60,225>, <"N13","N1",60,296>, <"N13","N2",60,0>, <"N13","N3",60,116>, <"N13","N4",60,238>, <"N13","N5",60,0>, <"N13","N6",60,100>, <"N13","N7",60,252>, <"N13","N8",60,198>, <"N13","N9",60,274>, <"N13","N10",60,327>, <"N13","N11",60,187>, <"N13","N12",60,0>, <"N13","N14",60,200>, <"N13","N15",60,185>, <"N13","N16",60,178>, <"N13","N17",60,316>, <"N13","N18",60,220>, <"N13","N19",60,125>, <"N13","N20",60,212>, <"N13","N21",60,255>, <"N13","N22",60,152>, <"N13","N23",60,275>, <"N13","N24",60,208>, <"N14","N1",60,150>, <"N14","N2",60,266>, <"N14","N3",60,0>, <"N14","N4",60,152>, <"N14","N5",60,115>, <"N14","N6",60,125>, <"N14","N7",60,329>, <"N14","N8",60,121>, <"N14","N9",60,104>, <"N14","N10",60,253>, <"N14","N11",60,166>, <"N14","N12",60,202>, <"N14","N13",60,200>, <"N14","N15",60,108>, <"N14","N16",60,224>, <"N14","N17",60,119>, <"N14","N18",60,174>, <"N14","N19",60,281>, <"N14","N20",60,58>, <"N14","N21",60,200>, <"N14","N22",60,154>, <"N14","N23",60,0>, <"N14","N24",60,0>, <"N15","N1",60,258>, <"N15","N2",60,0>, <"N15","N3",60,0>, <"N15","N4",60,251>, <"N15","N5",60,0>, <"N15","N6",60,0>, <"N15","N7",60,227>, <"N15","N8",60,213>, <"N15","N9",60,211>, <"N15","N10",60,0>, <"N15","N11",60,0>, <"N15","N12",60,226>, <"N15","N13",60,185>, <"N15","N14",60,108>, <"N15","N16",60,0>, <"N15","N17",60,206>, <"N15","N18",60,0>, <"N15","N19",60,0>, <"N15","N20",60,0>, <"N15","N21",60,98>, <"N15","N22",60,222>, <"N15","N23",60,0>, <"N15","N24",60,74>, <"N16","N1",60,370>, <"N16","N2",60,161>, <"N16","N3",60,210>, <"N16","N4",60,346>, <"N16","N5",60,158>, <"N16","N6",60,123>, <"N16","N7",60,0>, <"N16","N8",60,304>, <"N16","N9",60,328>, <"N16","N10",60,0>, <"N16","N11",60,0>, <"N16","N12",60,249>, <"N16","N13",60,178>, <"N16","N14",60,224>, <"N16","N15",60,0>, <"N16","N17",60,330>, <"N16","N18",60,0>, <"N16","N19",60,0>, <"N16","N20",60,272>, <"N16","N21",60,113>, <"N16","N22",60,289>, <"N16","N23",60,257>, <"N16","N24",60,197>, <"N17","N1",60,0>, <"N17","N2",60,385>, <"N17","N3",60,203>, <"N17","N4",60,176>, <"N17","N5",60,234>, <"N17","N6",60,244>, <"N17","N7",60,433>, <"N17","N8",60,174>, <"N17","N9",60,75>, <"N17","N10",60,305>, <"N17","N11",60,264>, <"N17","N12",60,305>, <"N17","N13",60,316>, <"N17","N14",60,119>, <"N17","N15",60,206>, <"N17","N16",60,330>, <"N17","N18",60,260>, <"N17","N19",60,400>, <"N17","N20",60,0>, <"N17","N21",60,274>, <"N17","N22",60,232>, <"N17","N23",60,0>, <"N17","N24",60,134>, <"N18","N1",60,324>, <"N18","N2",60,233>, <"N18","N3",60,201>, <"N18","N4",60,319>, <"N18","N5",60,162>, <"N18","N6",60,129>, <"N18","N7",60,179>, <"N18","N8",60,280>, <"N18","N9",60,275>, <"N18","N10",60,108>, <"N18","N11",60,0>, <"N18","N12",60,276>, <"N18","N13",60,220>, <"N18","N14",60,174>, <"N18","N15",60,0>, <"N18","N16",60,0>, <"N18","N17",60,260>, <"N18","N19",60,211>, <"N18","N20",60,230>, <"N18","N21",60,0>, <"N18","N22",60,285>, <"N18","N23",60,182>, <"N18","N24",60,136>, <"N19","N1",60,405>, <"N19","N2",60,0>, <"N19","N3",60,222>, <"N19","N4",60,357>, <"N19","N5",60,173>, <"N19","N6",60,156>, <"N19","N7",60,0>, <"N19","N8",60,314>, <"N19","N9",60,374>, <"N19","N10",60,302>, <"N19","N11",60,180>, <"N19","N12",60,200>, <"N19","N13",60,125>, <"N19","N14",60,281>, <"N19","N15",60,0>, <"N19","N16",60,0>, <"N19","N17",60,400>, <"N19","N18",60,211>, <"N19","N20",60,312>, <"N19","N21",60,237>, <"N19","N22",60,275>, <"N19","N23",60,340>, <"N19","N24",60,271>, <"N20","N1",60,0>, <"N20","N2",60,287>, <"N20","N3",60,0>, <"N20","N4",60,0>, <"N20","N5",60,139>, <"N20","N6",60,161>, <"N20","N7",60,377>, <"N20","N8",60,0>, <"N20","N9",60,0>, <"N20","N10",60,310>, <"N20","N11",60,219>, <"N20","N12",60,0>, <"N20","N13",60,212>, <"N20","N14",60,58>, <"N20","N15",60,0>, <"N20","N16",60,272>, <"N20","N17",60,0>, <"N20","N18",60,230>, <"N20","N19",60,312>, <"N20","N21",60,257>, <"N20","N22",60,0>, <"N20","N23",60,0>, <"N20","N24",60,100>, <"N21","N1",60,347>, <"N21","N2",60,264>, <"N21","N3",60,235>, <"N21","N4",60,348>, <"N21","N5",60,197>, <"N21","N6",60,165>, <"N21","N7",60,183>, <"N21","N8",60,311>, <"N21","N9",60,297>, <"N21","N10",60,0>, <"N21","N11",60,68>, <"N21","N12",60,312>, <"N21","N13",60,255>, <"N21","N14",60,200>, <"N21","N15",60,98>, <"N21","N16",60,113>, <"N21","N17",60,274>, <"N21","N18",60,0>, <"N21","N19",60,237>, <"N21","N20",60,257>, <"N21","N22",60,319>, <"N21","N23",60,195>, <"N21","N24",60,159>, <"N22","N1",60,166>, <"N22","N2",60,233>, <"N22","N3",60,84>, <"N22","N4",60,93>, <"N22","N5",60,131>, <"N22","N6",60,167>, <"N22","N7",60,384>, <"N22","N8",60,0>, <"N22","N9",60,166>, <"N22","N10",60,385>, <"N22","N11",60,261>, <"N22","N12",60,0>, <"N22","N13",60,152>, <"N22","N14",60,154>, <"N22","N15",60,222>, <"N22","N16",60,289>, <"N22","N17",60,232>, <"N22","N18",60,285>, <"N22","N19",60,275>, <"N22","N20",60,0>, <"N22","N21",60,319>, <"N22","N23",60,231>, <"N22","N24",60,190>, <"N23","N1",60,172>, <"N23","N2",60,334>, <"N23","N3",60,175>, <"N23","N4",60,207>, <"N23","N5",60,188>, <"N23","N6",60,188>, <"N23","N7",60,357>, <"N23","N8",60,187>, <"N23","N9",60,0>, <"N23","N10",60,227>, <"N23","N11",60,189>, <"N23","N12",60,283>, <"N23","N13",60,275>, <"N23","N14",60,0>, <"N23","N15",60,0>, <"N23","N16",60,257>, <"N23","N17",60,0>, <"N23","N18",60,182>, <"N23","N19",60,340>, <"N23","N20",60,0>, <"N23","N21",60,195>, <"N23","N22",60,231>, <"N23","N24",60,0>, <"N24","N1",60,188>, <"N24","N2",60,264>, <"N24","N3",60,119>, <"N24","N4",60,194>, <"N24","N5",60,121>, <"N24","N6",60,119>, <"N24","N7",60,300>, <"N24","N8",60,163>, <"N24","N9",60,139>, <"N24","N10",60,211>, <"N24","N11",60,133>, <"N24","N12",60,225>, <"N24","N13",60,208>, <"N24","N14",60,0>, <"N24","N15",60,74>, <"N24","N16",60,197>, <"N24","N17",60,134>, <"N24","N18",60,136>, <"N24","N19",60,271>, <"N24","N20",60,100>, <"N24","N21",60,159>, <"N24","N22",60,190>, <"N24","N23",60,0>};
Demands = {<"N1","N2",2,0>, <"N1","N3",4,0>, <"N1","N4",6,0>, <"N1","N5",8,0>, <"N1","N6",10,0>, <"N1","N7",12,0>, <"N1","N8",14,0>, <"N1","N9",16,0>, <"N1","N10",18,0>, <"N1","N11",20,0>, <"N1","N12",22,0>, <"N1","N13",24,0>, <"N1","N14",26,0>, <"N1","N15",28,0>, <"N1","N16",30,0>, <"N1","N17",32,0>, <"N1","N18",34,0>, <"N1","N19",36,0>, <"N1","N20",38,0>, <"N1","N21",40,0>, <"N1","N22",42,0>, <"N1","N23",44,0>, <"N1","N24",46,0>, <"N2","N1",2,0>, <"N2","N3",2,0>, <"N2","N4",4,0>, <"N2","N5",6,0>, <"N2","N6",8,0>, <"N2","N7",10,0>, <"N2","N8",12,0>, <"N2","N9",14,0>, <"N2","N10",16,0>, <"N2","N11",18,0>, <"N2","N12",20,0>, <"N2","N13",22,0>, <"N2","N14",24,0>, <"N2","N15",26,0>, <"N2","N16",28,0>, <"N2","N17",30,0>, <"N2","N18",32,0>, <"N2","N19",34,0>, <"N2","N20",36,0>, <"N2","N21",38,0>, <"N2","N22",40,0>, <"N2","N23",42,0>, <"N2","N24",44,0>, <"N3","N1",4,0>, <"N3","N2",2,0>, <"N3","N4",2,0>, <"N3","N5",4,0>, <"N3","N6",6,0>, <"N3","N7",8,0>, <"N3","N8",10,0>, <"N3","N9",12,0>, <"N3","N10",14,0>, <"N3","N11",16,0>, <"N3","N12",18,0>, <"N3","N13",20,0>, <"N3","N14",22,0>, <"N3","N15",24,0>, <"N3","N16",26,0>, <"N3","N17",28,0>, <"N3","N18",30,0>, <"N3","N19",32,0>, <"N3","N20",34,0>, <"N3","N21",36,0>, <"N3","N22",38,0>, <"N3","N23",40,0>, <"N3","N24",42,0>, <"N4","N1",6,0>, <"N4","N2",4,0>, <"N4","N3",2,0>, <"N4","N5",2,0>, <"N4","N6",4,0>, <"N4","N7",6,0>, <"N4","N8",8,0>, <"N4","N9",10,0>, <"N4","N10",12,0>, <"N4","N11",14,0>, <"N4","N12",16,0>, <"N4","N13",18,0>, <"N4","N14",20,0>, <"N4","N15",22,0>, <"N4","N16",24,0>, <"N4","N17",26,0>, <"N4","N18",28,0>, <"N4","N19",30,0>, <"N4","N20",32,0>, <"N4","N21",34,0>, <"N4","N22",36,0>, <"N4","N23",38,0>, <"N4","N24",40,0>, <"N5","N1",8,0>, <"N5","N2",6,0>, <"N5","N3",4,0>, <"N5","N4",2,0>, <"N5","N6",2,0>, <"N5","N7",4,0>, <"N5","N8",6,0>, <"N5","N9",8,0>, <"N5","N10",10,0>, <"N5","N11",12,0>, <"N5","N12",14,0>, <"N5","N13",16,0>, <"N5","N14",18,0>, <"N5","N15",20,0>, <"N5","N16",22,0>, <"N5","N17",24,0>, <"N5","N18",26,0>, <"N5","N19",28,0>, <"N5","N20",30,0>, <"N5","N21",32,0>, <"N5","N22",34,0>, <"N5","N23",36,0>, <"N5","N24",38,0>, <"N6","N1",10,0>, <"N6","N2",8,0>, <"N6","N3",6,0>, <"N6","N4",4,0>, <"N6","N5",2,0>, <"N6","N7",2,0>, <"N6","N8",4,0>, <"N6","N9",6,0>, <"N6","N10",8,0>, <"N6","N11",10,0>, <"N6","N12",12,0>, <"N6","N13",14,0>, <"N6","N14",16,0>, <"N6","N15",18,0>, <"N6","N16",20,0>, <"N6","N17",22,0>, <"N6","N18",24,0>, <"N6","N19",26,0>, <"N6","N20",28,0>, <"N6","N21",30,0>, <"N6","N22",32,0>, <"N6","N23",34,0>, <"N6","N24",36,0>, <"N7","N1",12,0>, <"N7","N2",10,0>, <"N7","N3",8,0>, <"N7","N4",6,0>, <"N7","N5",4,0>, <"N7","N6",2,0>, <"N7","N8",2,0>, <"N7","N9",4,0>, <"N7","N10",6,0>, <"N7","N11",8,0>, <"N7","N12",10,0>, <"N7","N13",12,0>, <"N7","N14",14,0>, <"N7","N15",16,0>, <"N7","N16",18,0>, <"N7","N17",20,0>, <"N7","N18",22,0>, <"N7","N19",24,0>, <"N7","N20",26,0>, <"N7","N21",28,0>, <"N7","N22",30,0>, <"N7","N23",32,0>, <"N7","N24",34,0>, <"N8","N1",14,0>, <"N8","N2",12,0>, <"N8","N3",10,0>, <"N8","N4",8,0>, <"N8","N5",6,0>, <"N8","N6",4,0>, <"N8","N7",2,0>, <"N8","N9",2,0>, <"N8","N10",4,0>, <"N8","N11",6,0>, <"N8","N12",8,0>, <"N8","N13",10,0>, <"N8","N14",12,0>, <"N8","N15",14,0>, <"N8","N16",16,0>, <"N8","N17",18,0>, <"N8","N18",20,0>, <"N8","N19",22,0>, <"N8","N20",24,0>, <"N8","N21",26,0>, <"N8","N22",28,0>, <"N8","N23",30,0>, <"N8","N24",32,0>, <"N9","N1",16,0>, <"N9","N2",14,0>, <"N9","N3",12,0>, <"N9","N4",10,0>, <"N9","N5",8,0>, <"N9","N6",6,0>, <"N9","N7",4,0>, <"N9","N8",2,0>, <"N9","N10",2,0>, <"N9","N11",4,0>, <"N9","N12",6,0>, <"N9","N13",8,0>, <"N9","N14",10,0>, <"N9","N15",12,0>, <"N9","N16",14,0>, <"N9","N17",16,0>, <"N9","N18",18,0>, <"N9","N19",20,0>, <"N9","N20",22,0>, <"N9","N21",24,0>, <"N9","N22",26,0>, <"N9","N23",28,0>, <"N9","N24",30,0>, <"N10","N1",18,0>, <"N10","N2",16,0>, <"N10","N3",14,0>, <"N10","N4",12,0>, <"N10","N5",10,0>, <"N10","N6",8,0>, <"N10","N7",6,0>, <"N10","N8",4,0>, <"N10","N9",2,0>, <"N10","N11",2,0>, <"N10","N12",4,0>, <"N10","N13",6,0>, <"N10","N14",8,0>, <"N10","N15",10,0>, <"N10","N16",12,0>, <"N10","N17",14,0>, <"N10","N18",16,0>, <"N10","N19",18,0>, <"N10","N20",20,0>, <"N10","N21",22,0>, <"N10","N22",24,0>, <"N10","N23",26,0>, <"N10","N24",28,0>, <"N11","N1",20,0>, <"N11","N2",18,0>, <"N11","N3",16,0>, <"N11","N4",14,0>, <"N11","N5",12,0>, <"N11","N6",10,0>, <"N11","N7",8,0>, <"N11","N8",6,0>, <"N11","N9",4,0>, <"N11","N10",2,0>, <"N11","N12",2,0>, <"N11","N13",4,0>, <"N11","N14",6,0>, <"N11","N15",8,0>, <"N11","N16",10,0>, <"N11","N17",12,0>, <"N11","N18",14,0>, <"N11","N19",16,0>, <"N11","N20",18,0>, <"N11","N21",20,0>, <"N11","N22",22,0>, <"N11","N23",24,0>, <"N11","N24",26,0>, <"N12","N1",22,0>, <"N12","N2",20,0>, <"N12","N3",18,0>, <"N12","N4",16,0>, <"N12","N5",14,0>, <"N12","N6",12,0>, <"N12","N7",10,0>, <"N12","N8",8,0>, <"N12","N9",6,0>, <"N12","N10",4,0>, <"N12","N11",2,0>, <"N12","N13",2,0>, <"N12","N14",4,0>, <"N12","N15",6,0>, <"N12","N16",8,0>, <"N12","N17",10,0>, <"N12","N18",12,0>, <"N12","N19",14,0>, <"N12","N20",16,0>, <"N12","N21",18,0>, <"N12","N22",20,0>, <"N12","N23",22,0>, <"N12","N24",24,0>, <"N13","N1",24,0>, <"N13","N2",22,0>, <"N13","N3",20,0>, <"N13","N4",18,0>, <"N13","N5",16,0>, <"N13","N6",14,0>, <"N13","N7",12,0>, <"N13","N8",10,0>, <"N13","N9",8,0>, <"N13","N10",6,0>, <"N13","N11",4,0>, <"N13","N12",2,0>, <"N13","N14",2,0>, <"N13","N15",4,0>, <"N13","N16",6,0>, <"N13","N17",8,0>, <"N13","N18",10,0>, <"N13","N19",12,0>, <"N13","N20",14,0>, <"N13","N21",16,0>, <"N13","N22",18,0>, <"N13","N23",20,0>, <"N13","N24",22,0>, <"N14","N1",26,0>, <"N14","N2",24,0>, <"N14","N3",22,0>, <"N14","N4",20,0>, <"N14","N5",18,0>, <"N14","N6",16,0>, <"N14","N7",14,0>, <"N14","N8",12,0>, <"N14","N9",10,0>, <"N14","N10",8,0>, <"N14","N11",6,0>, <"N14","N12",4,0>, <"N14","N13",2,0>, <"N14","N15",2,0>, <"N14","N16",4,0>, <"N14","N17",6,0>, <"N14","N18",8,0>, <"N14","N19",10,0>, <"N14","N20",12,0>, <"N14","N21",14,0>, <"N14","N22",16,0>, <"N14","N23",18,0>, <"N14","N24",20,0>, <"N15","N1",28,0>, <"N15","N2",26,0>, <"N15","N3",24,0>, <"N15","N4",22,0>, <"N15","N5",20,0>, <"N15","N6",18,0>, <"N15","N7",16,0>, <"N15","N8",14,0>, <"N15","N9",12,0>, <"N15","N10",10,0>, <"N15","N11",8,0>, <"N15","N12",6,0>, <"N15","N13",4,0>, <"N15","N14",2,0>, <"N15","N16",2,0>, <"N15","N17",4,0>, <"N15","N18",6,0>, <"N15","N19",8,0>, <"N15","N20",10,0>, <"N15","N21",12,0>, <"N15","N22",14,0>, <"N15","N23",16,0>, <"N15","N24",18,0>, <"N16","N1",30,0>, <"N16","N2",28,0>, <"N16","N3",26,0>, <"N16","N4",24,0>, <"N16","N5",22,0>, <"N16","N6",20,0>, <"N16","N7",18,0>, <"N16","N8",16,0>, <"N16","N9",14,0>, <"N16","N10",12,0>, <"N16","N11",10,0>, <"N16","N12",8,0>, <"N16","N13",6,0>, <"N16","N14",4,0>, <"N16","N15",2,0>, <"N16","N17",2,0>, <"N16","N18",4,0>, <"N16","N19",6,0>, <"N16","N20",8,0>, <"N16","N21",10,0>, <"N16","N22",12,0>, <"N16","N23",14,0>, <"N16","N24",16,0>, <"N17","N1",32,0>, <"N17","N2",30,0>, <"N17","N3",28,0>, <"N17","N4",26,0>, <"N17","N5",24,0>, <"N17","N6",22,0>, <"N17","N7",20,0>, <"N17","N8",18,0>, <"N17","N9",16,0>, <"N17","N10",14,0>, <"N17","N11",12,0>, <"N17","N12",10,0>, <"N17","N13",8,0>, <"N17","N14",6,0>, <"N17","N15",4,0>, <"N17","N16",2,0>, <"N17","N18",2,0>, <"N17","N19",4,0>, <"N17","N20",6,0>, <"N17","N21",8,0>, <"N17","N22",10,0>, <"N17","N23",12,0>, <"N17","N24",14,0>, <"N18","N1",34,0>, <"N18","N2",32,0>, <"N18","N3",30,0>, <"N18","N4",28,0>, <"N18","N5",26,0>, <"N18","N6",24,0>, <"N18","N7",22,0>, <"N18","N8",20,0>, <"N18","N9",18,0>, <"N18","N10",16,0>, <"N18","N11",14,0>, <"N18","N12",12,0>, <"N18","N13",10,0>, <"N18","N14",8,0>, <"N18","N15",6,0>, <"N18","N16",4,0>, <"N18","N17",2,0>, <"N18","N19",2,0>, <"N18","N20",4,0>, <"N18","N21",6,0>, <"N18","N22",8,0>, <"N18","N23",10,0>, <"N18","N24",12,0>, <"N19","N1",36,0>, <"N19","N2",34,0>, <"N19","N3",32,0>, <"N19","N4",30,0>, <"N19","N5",28,0>, <"N19","N6",26,0>, <"N19","N7",24,0>, <"N19","N8",22,0>, <"N19","N9",20,0>, <"N19","N10",18,0>, <"N19","N11",16,0>, <"N19","N12",14,0>, <"N19","N13",12,0>, <"N19","N14",10,0>, <"N19","N15",8,0>, <"N19","N16",6,0>, <"N19","N17",4,0>, <"N19","N18",2,0>, <"N19","N20",2,0>, <"N19","N21",4,0>, <"N19","N22",6,0>, <"N19","N23",8,0>, <"N19","N24",10,0>, <"N20","N1",38,0>, <"N20","N2",36,0>, <"N20","N3",34,0>, <"N20","N4",32,0>, <"N20","N5",30,0>, <"N20","N6",28,0>, <"N20","N7",26,0>, <"N20","N8",24,0>, <"N20","N9",22,0>, <"N20","N10",20,0>, <"N20","N11",18,0>, <"N20","N12",16,0>, <"N20","N13",14,0>, <"N20","N14",12,0>, <"N20","N15",10,0>, <"N20","N16",8,0>, <"N20","N17",6,0>, <"N20","N18",4,0>, <"N20","N19",2,0>, <"N20","N21",2,0>, <"N20","N22",4,0>, <"N20","N23",6,0>, <"N20","N24",8,0>, <"N21","N1",40,0>, <"N21","N2",38,0>, <"N21","N3",36,0>, <"N21","N4",34,0>, <"N21","N5",32,0>, <"N21","N6",30,0>, <"N21","N7",28,0>, <"N21","N8",26,0>, <"N21","N9",24,0>, <"N21","N10",22,0>, <"N21","N11",20,0>, <"N21","N12",18,0>, <"N21","N13",16,0>, <"N21","N14",14,0>, <"N21","N15",12,0>, <"N21","N16",10,0>, <"N21","N17",8,0>, <"N21","N18",6,0>, <"N21","N19",4,0>, <"N21","N20",2,0>, <"N21","N22",2,0>, <"N21","N23",4,0>, <"N21","N24",6,0>, <"N22","N1",42,0>, <"N22","N2",40,0>, <"N22","N3",38,0>, <"N22","N4",36,0>, <"N22","N5",34,0>, <"N22","N6",32,0>, <"N22","N7",30,0>, <"N22","N8",28,0>, <"N22","N9",26,0>, <"N22","N10",24,0>, <"N22","N11",22,0>, <"N22","N12",20,0>, <"N22","N13",18,0>, <"N22","N14",16,0>, <"N22","N15",14,0>, <"N22","N16",12,0>, <"N22","N17",10,0>, <"N22","N18",8,0>, <"N22","N19",6,0>, <"N22","N20",4,0>, <"N22","N21",2,0>, <"N22","N23",2,0>, <"N22","N24",4,0>, <"N23","N1",44,0>, <"N23","N2",42,0>, <"N23","N3",40,0>, <"N23","N4",38,0>, <"N23","N5",36,0>, <"N23","N6",34,0>, <"N23","N7",32,0>, <"N23","N8",30,0>, <"N23","N9",28,0>, <"N23","N10",26,0>, <"N23","N11",24,0>, <"N23","N12",22,0>, <"N23","N13",20,0>, <"N23","N14",18,0>, <"N23","N15",16,0>, <"N23","N16",14,0>, <"N23","N17",12,0>, <"N23","N18",10,0>, <"N23","N19",8,0>, <"N23","N20",6,0>, <"N23","N21",4,0>, <"N23","N22",2,0>, <"N23","N24",2,0>, <"N24","N1",46,0>, <"N24","N2",44,0>, <"N24","N3",42,0>, <"N24","N4",40,0>, <"N24","N5",38,0>, <"N24","N6",36,0>, <"N24","N7",34,0>, <"N24","N8",32,0>, <"N24","N9",30,0>, <"N24","N10",28,0>, <"N24","N11",26,0>, <"N24","N12",24,0>, <"N24","N13",22,0>, <"N24","N14",20,0>, <"N24","N15",18,0>, <"N24","N16",16,0>, <"N24","N17",14,0>, <"N24","N18",12,0>, <"N24","N19",10,0>, <"N24","N20",8,0>, <"N24","N21",6,0>, <"N24","N22",4,0>, <"N24","N23",2,0>};
